Minimize
 obj: 0 X_0_1
Subject To
 out_0:
  + 1 X_0_1 + 1 X_0_2 + 1 X_0_3 + 1 X_0_4
  = 1
 in_0:
  + 1 X_1_0 + 1 X_2_0 + 1 X_3_0 + 1 X_4_0
  = 1
 out_1:
  + 1 X_1_0 + 1 X_1_2 + 1 X_1_3 + 1 X_1_4
  = 1
 in_1:
  + 1 X_0_1 + 1 X_2_1 + 1 X_3_1 + 1 X_4_1
  = 1
 out_2:
  + 1 X_2_0 + 1 X_2_1 + 1 X_2_3 + 1 X_2_4
  = 1
 in_2:
  + 1 X_0_2 + 1 X_1_2 + 1 X_3_2 + 1 X_4_2
  = 1
 out_3:
  + 1 X_3_0 + 1 X_3_1 + 1 X_3_2 + 1 X_3_4
  = 1
 in_3:
  + 1 X_0_3 + 1 X_1_3 + 1 X_2_3 + 1 X_4_3
  = 1
 out_4:
  + 1 X_4_0 + 1 X_4_1 + 1 X_4_2 + 1 X_4_3
  = 1
 in_4:
  + 1 X_0_4 + 1 X_1_4 + 1 X_2_4 + 1 X_3_4
  = 1
 mtz_1_2:
  + 1 U1 - 1 U2 + 4 X_1_2
  <= 3
 mtz_1_3:
  + 1 U1 - 1 U3 + 4 X_1_3
  <= 3
 mtz_1_4:
  + 1 U1 - 1 U4 + 4 X_1_4
  <= 3
 mtz_2_1:
  + 1 U2 - 1 U1 + 4 X_2_1
  <= 3
 mtz_2_3:
  + 1 U2 - 1 U3 + 4 X_2_3
  <= 3
 mtz_2_4:
  + 1 U2 - 1 U4 + 4 X_2_4
  <= 3
 mtz_3_1:
  + 1 U3 - 1 U1 + 4 X_3_1
  <= 3
 mtz_3_2:
  + 1 U3 - 1 U2 + 4 X_3_2
  <= 3
 mtz_3_4:
  + 1 U3 - 1 U4 + 4 X_3_4
  <= 3
 mtz_4_1:
  + 1 U4 - 1 U1 + 4 X_4_1
  <= 3
 mtz_4_2:
  + 1 U4 - 1 U2 + 4 X_4_2
  <= 3
 mtz_4_3:
  + 1 U4 - 1 U3 + 4 X_4_3
  <= 3
 obj1:
  + 499 X_0_1 + 720 X_0_2 + 234 X_0_3 + 364 X_0_4 + 499 X_1_0 + 809 X_1_2 + 268 X_1_3 + 836 X_1_4
  + 720 X_2_0 + 809 X_2_1 + 751 X_2_3 + 685 X_2_4 + 234 X_3_0 + 268 X_3_1 + 751 X_3_2 + 589 X_3_4
  + 364 X_4_0 + 836 X_4_1 + 685 X_4_2 + 589 X_4_3
  <= 1
 obj2:
  + 458 X_0_1 + 614 X_0_2 + 327 X_0_3 + 607 X_0_4 + 458 X_1_0 + 325 X_1_2 + 777 X_1_3 + 563 X_1_4
  + 614 X_2_0 + 325 X_2_1 + 936 X_2_3 + 323 X_2_4 + 327 X_3_0 + 777 X_3_1 + 936 X_3_2 + 871 X_3_4
  + 607 X_4_0 + 563 X_4_1 + 323 X_4_2 + 871 X_4_3
  <= 2
 obj3:
  + 282 X_0_1 + 379 X_0_2 + 375 X_0_3 + 398 X_0_4 + 282 X_1_0 + 245 X_1_2 + 425 X_1_3 + 335 X_1_4
  + 379 X_2_0 + 245 X_2_1 + 651 X_2_3 + 107 X_2_4 + 375 X_3_0 + 425 X_3_1 + 651 X_3_2 + 715 X_3_4
  + 398 X_4_0 + 335 X_4_1 + 107 X_4_2 + 715 X_4_3
  <= 3
 obj4:
  + 548 X_0_1 + 539 X_0_2 + 383 X_0_3 + 486 X_0_4 + 548 X_1_0 + 563 X_1_2 + 736 X_1_3 + 677 X_1_4
  + 539 X_2_0 + 563 X_2_1 + 915 X_2_3 + 178 X_2_4 + 383 X_3_0 + 736 X_3_1 + 915 X_3_2 + 869 X_3_4
  + 486 X_4_0 + 677 X_4_1 + 178 X_4_2 + 869 X_4_3
  <= 4
 obj5:
  + 905 X_0_1 + 603 X_0_2 + 72 X_0_3 + 217 X_0_4 + 905 X_1_0 + 709 X_1_2 + 970 X_1_3 + 820 X_1_4
  + 603 X_2_0 + 709 X_2_1 + 669 X_2_3 + 715 X_2_4 + 72 X_3_0 + 970 X_3_1 + 669 X_3_2 + 233 X_3_4
  + 217 X_4_0 + 820 X_4_1 + 715 X_4_2 + 233 X_4_3
  <= 5
Bounds
 1 <= U1 <= 4
 1 <= U2 <= 4
 1 <= U3 <= 4
 1 <= U4 <= 4
Binary
 X_0_1
 X_0_2
 X_0_3
 X_0_4
 X_1_0
 X_1_2
 X_1_3
 X_1_4
 X_2_0
 X_2_1
 X_2_3
 X_2_4
 X_3_0
 X_3_1
 X_3_2
 X_3_4
 X_4_0
 X_4_1
 X_4_2
 X_4_3
End
